25° run output:
{
    "Function": "ClusterB500.tsp",
    "Problem dimension": [
        318,
        298,
        76,
        419,
        227,
        28,
        488,
        258,
        63,
        476,
        105,
        75,
        144,
        136,
        48,
        18,
        273,
        163,
        455,
        263,
        180,
        252,
        61,
        390,
        291,
        219,
        498,
        433,
        122,
        127,
        319,
        425,
        432,
        371,
        25,
        485,
        297,
        170,
        341,
        181,
        345,
        288,
        435,
        389,
        66,
        305,
        474,
        268,
        125,
        214,
        280,
        98,
        317,
        274,
        231,
        30,
        210,
        270,
        168,
        482,
        185,
        328,
        491,
        250,
        256,
        108,
        109,
        400,
        162,
        412,
        59,
        355,
        64,
        335,
        126,
        380,
        206,
        137,
        439,
        397,
        47,
        212,
        497,
        392,
        446,
        495,
        12,
        151,
        159,
        337,
        367,
        364,
        120,
        67,
        42,
        325,
        438,
        27,
        354,
        378,
        100,
        406,
        269,
        83,
        69,
        332,
        232,
        101,
        396,
        3,
        129,
        164,
        20,
        54,
        240,
        44,
        32,
        327,
        211,
        314,
        190,
        111,
        166,
        31,
        356,
        41,
        234,
        221,
        457,
        375,
        128,
        275,
        387,
        430,
        145,
        203,
        9,
        80,
        484,
        88,
        452,
        381,
        494,
        360,
        172,
        124,
        10,
        149,
        421,
        246,
        295,
        464,
        409,
        160,
        188,
        147,
        368,
        443,
        304,
        46,
        14,
        78,
        242,
        324,
        106,
        201,
        82,
        308,
        112,
        175,
        492,
        330,
        264,
        133,
        171,
        326,
        426,
        130,
        284,
        286,
        282,
        475,
        487,
        272,
        236,
        218,
        403,
        359,
        253,
        279,
        202,
        71,
        408,
        362,
        442,
        281,
        350,
        89,
        35,
        45,
        8,
        228,
        199,
        36,
        84,
        348,
        225,
        79,
        265,
        391,
        217,
        251,
        493,
        311,
        193,
        385,
        299,
        49,
        6,
        292,
        331,
        216,
        226,
        301,
        271,
        191,
        208,
        276,
        43,
        358,
        73,
        349,
        68,
        379,
        417,
        285,
        262,
        399,
        467,
        62,
        229,
        441,
        177,
        260,
        222,
        248,
        96,
        415,
        329,
        220,
        473,
        306,
        142,
        148,
        196,
        70,
        372,
        448,
        486,
        223,
        153,
        239,
        369,
        29,
        307,
        244,
        2,
        422,
        33,
        343,
        1,
        277,
        401,
        463,
        303,
        353,
        7,
        479,
        428,
        444,
        146,
        490,
        310,
        346,
        92,
        480,
        404,
        347,
        407,
        119,
        213,
        110,
        290,
        16,
        411,
        320,
        287,
        322,
        17,
        447,
        198,
        178,
        186,
        37,
        374,
        57,
        316,
        72,
        95,
        97,
        454,
        416,
        440,
        237,
        58,
        123,
        19,
        257,
        357,
        34,
        334,
        139,
        104,
        393,
        434,
        384,
        15,
        200,
        53,
        481,
        26,
        423,
        338,
        158,
        132,
        386,
        182,
        195,
        51,
        230,
        342,
        52,
        74,
        283,
        241,
        197,
        23,
        22,
        224,
        13,
        418,
        5,
        150,
        143,
        55,
        86,
        94,
        344,
        471,
        376,
        103,
        267,
        294,
        323,
        483,
        209,
        204,
        321,
        0,
        395,
        366,
        496,
        38,
        453,
        462,
        131,
        192,
        247,
        261,
        93,
        21,
        456,
        377,
        207,
        183,
        91,
        370,
        352,
        238,
        477,
        336,
        40,
        339,
        60,
        405,
        205,
        469,
        179,
        363,
        293,
        382,
        450,
        99,
        107,
        472,
        152,
        77,
        478,
        134,
        115,
        302,
        451,
        90,
        156,
        141,
        184,
        254,
        312,
        161,
        458,
        489,
        243,
        333,
        39,
        215,
        289,
        165,
        118,
        315,
        429,
        449,
        398,
        414,
        420,
        157,
        437,
        361,
        383,
        431,
        436,
        167,
        466,
        135,
        351,
        138,
        309,
        365,
        50,
        174,
        427,
        187,
        233,
        85,
        189,
        235,
        140,
        259,
        116,
        470,
        176,
        445,
        249,
        394,
        245,
        413,
        169,
        340,
        460,
        410,
        388,
        313,
        4,
        300,
        87,
        373,
        155,
        114,
        56,
        113,
        459,
        266,
        296,
        499,
        24,
        468,
        65,
        102,
        278,
        154,
        117,
        81,
        402,
        465,
        11,
        424,
        121,
        194,
        461,
        255,
        173
    ],
    "Global Optimum": 0,
    "Algorithm": "Genetic algorithm",
    "Parameters": {
        "population": 30,
        "offspring": 30,
        "mutation probability": 0.002,
        "crossover probability": 0.9
    },
    "Fitness": 538633,
    "Solution": [
        318,
        298,
        76,
        419,
        227,
        28,
        488,
        258,
        63,
        476,
        105,
        75,
        144,
        136,
        48,
        18,
        273,
        163,
        455,
        263,
        180,
        252,
        61,
        390,
        291,
        219,
        498,
        433,
        122,
        127,
        319,
        425,
        432,
        371,
        25,
        485,
        297,
        170,
        341,
        181,
        345,
        288,
        435,
        389,
        66,
        305,
        474,
        268,
        125,
        214,
        280,
        98,
        317,
        274,
        231,
        30,
        210,
        270,
        168,
        482,
        185,
        328,
        491,
        250,
        256,
        108,
        109,
        400,
        162,
        412,
        59,
        355,
        64,
        335,
        126,
        380,
        206,
        137,
        439,
        397,
        47,
        212,
        497,
        392,
        446,
        495,
        12,
        151,
        159,
        337,
        367,
        364,
        120,
        67,
        42,
        325,
        438,
        27,
        354,
        378,
        100,
        406,
        269,
        83,
        69,
        332,
        232,
        101,
        396,
        3,
        129,
        164,
        20,
        54,
        240,
        44,
        32,
        327,
        211,
        314,
        190,
        111,
        166,
        31,
        356,
        41,
        234,
        221,
        457,
        375,
        128,
        275,
        387,
        430,
        145,
        203,
        9,
        80,
        484,
        88,
        452,
        381,
        494,
        360,
        172,
        124,
        10,
        149,
        421,
        246,
        295,
        464,
        409,
        160,
        188,
        147,
        368,
        443,
        304,
        46,
        14,
        78,
        242,
        324,
        106,
        201,
        82,
        308,
        112,
        175,
        492,
        330,
        264,
        133,
        171,
        326,
        426,
        130,
        284,
        286,
        282,
        475,
        487,
        272,
        236,
        218,
        403,
        359,
        253,
        279,
        202,
        71,
        408,
        362,
        442,
        281,
        350,
        89,
        35,
        45,
        8,
        228,
        199,
        36,
        84,
        348,
        225,
        79,
        265,
        391,
        217,
        251,
        493,
        311,
        193,
        385,
        299,
        49,
        6,
        292,
        331,
        216,
        226,
        301,
        271,
        191,
        208,
        276,
        43,
        358,
        73,
        349,
        68,
        379,
        417,
        285,
        262,
        399,
        467,
        62,
        229,
        441,
        177,
        260,
        222,
        248,
        96,
        415,
        329,
        220,
        473,
        306,
        142,
        148,
        196,
        70,
        372,
        448,
        486,
        223,
        153,
        239,
        369,
        29,
        307,
        244,
        2,
        422,
        33,
        343,
        1,
        277,
        401,
        463,
        303,
        353,
        7,
        479,
        428,
        444,
        146,
        490,
        310,
        346,
        92,
        480,
        404,
        347,
        407,
        119,
        213,
        110,
        290,
        16,
        411,
        320,
        287,
        322,
        17,
        447,
        198,
        178,
        186,
        37,
        374,
        57,
        316,
        72,
        95,
        97,
        454,
        416,
        440,
        237,
        58,
        123,
        19,
        257,
        357,
        34,
        334,
        139,
        104,
        393,
        434,
        384,
        15,
        200,
        53,
        481,
        26,
        423,
        338,
        158,
        132,
        386,
        182,
        195,
        51,
        230,
        342,
        52,
        74,
        283,
        241,
        197,
        23,
        22,
        224,
        13,
        418,
        5,
        150,
        143,
        55,
        86,
        94,
        344,
        471,
        376,
        103,
        267,
        294,
        323,
        483,
        209,
        204,
        321,
        0,
        395,
        366,
        496,
        38,
        453,
        462,
        131,
        192,
        247,
        261,
        93,
        21,
        456,
        377,
        207,
        183,
        91,
        370,
        352,
        238,
        477,
        336,
        40,
        339,
        60,
        405,
        205,
        469,
        179,
        363,
        293,
        382,
        450,
        99,
        107,
        472,
        152,
        77,
        478,
        134,
        115,
        302,
        451,
        90,
        156,
        141,
        184,
        254,
        312,
        161,
        458,
        489,
        243,
        333,
        39,
        215,
        289,
        165,
        118,
        315,
        429,
        449,
        398,
        414,
        420,
        157,
        437,
        361,
        383,
        431,
        436,
        167,
        466,
        135,
        351,
        138,
        309,
        365,
        50,
        174,
        427,
        187,
        233,
        85,
        189,
        235,
        140,
        259,
        116,
        470,
        176,
        445,
        249,
        394,
        245,
        413,
        169,
        340,
        460,
        410,
        388,
        313,
        4,
        300,
        87,
        373,
        155,
        114,
        56,
        113,
        459,
        266,
        296,
        499,
        24,
        468,
        65,
        102,
        278,
        154,
        117,
        81,
        402,
        465,
        11,
        424,
        121,
        194,
        461,
        255,
        173
    ],
    "Nb of functions evaluations": 400020,
    "Computational time in seconds": 1773.582192659378,
    "Stopping criterion in evaluations": 400000
}